\ Model DARP
\ LP format - for model browsing. Use MPS format to capture full model detail.
Minimize
  12.5 x[2] + 12.5 x[3] + 16.82 x[4] + 16.82 x[5] + 16.82 x[6] + 16.82 x[7]
   + 12.5 x[8] + 12.5 x[9] + 16.82 x[10] + 16.82 x[11] + 16.82 x[12]
   + 16.82 x[13] + 12.5 x[16] + 12.5 x[17] + 11.25 x[20] + 11.25 x[21]
   + 11.25 x[22] + 11.25 x[23] + 11.25 x[26] + 11.25 x[27] + 11.25 x[28]
   + 11.25 x[29] + 12.5 x[30] + 12.5 x[31] + 16.82 x[32] + 16.82 x[33]
   + 11.25 x[34] + 11.25 x[35] + 11.25 x[40] + 11.25 x[41] + 16.82 x[46]
   + 16.82 x[47] + 16.82 x[48] + 16.82 x[49] + 11.25 x[50] + 11.25 x[51]
   + 11.25 x[56] + 11.25 x[57] + 16.82 x[62] + 16.82 x[63] + 6.73 x[64]
   + 6.73 x[65] + 16.25 x[66] + 16.25 x[67] + 15.81 x[68] + 15.81 x[69]
   + 15.81 x[70] + 15.81 x[71] + 16.25 x[72] + 16.25 x[73] + 15.81 x[74]
   + 15.81 x[75] + 15.81 x[76] + 15.81 x[77] + 6.73 x[78] + 6.73 x[79]
   + 6.73 x[80] + 6.73 x[81] + 16.25 x[82] + 16.25 x[83] + 15.81 x[84]
   + 15.81 x[85] + 15.81 x[86] + 15.81 x[87] + 16.25 x[88] + 16.25 x[89]
   + 15.81 x[90] + 15.81 x[91] + 15.81 x[92] + 15.81 x[93] + 6.73 x[94]
   + 6.73 x[95] + 6.73 x[96] + 6.73 x[97] + 16.25 x[98] + 16.25 x[99]
   + 15.81 x[100] + 15.81 x[101] + 15.81 x[102] + 15.81 x[103]
   + 16.25 x[104] + 16.25 x[105] + 15.81 x[106] + 15.81 x[107]
   + 15.81 x[108] + 15.81 x[109] + 6.73 x[110] + 6.73 x[111] + 12.5 x[114]
   + 12.5 x[115] + 16.82 x[116] + 16.82 x[117] + 16.82 x[118]
   + 16.82 x[119] + 12.5 x[120] + 12.5 x[121] + 16.82 x[122] + 16.82 x[123]
   + 16.82 x[124] + 16.82 x[125]
Subject To
 c1[1][0]: x[16] + x[18] + x[20] + x[22] + x[24] + x[26] + x[28] + x[30]
   = 1
 c1[1][1]: x[17] + x[19] + x[21] + x[23] + x[25] + x[27] + x[29] + x[31]
   = 1
 c1[2][0]: x[32] + x[34] + x[36] + x[38] + x[40] + x[42] + x[44] + x[46]
   = 1
 c1[2][1]: x[33] + x[35] + x[37] + x[39] + x[41] + x[43] + x[45] + x[47]
   = 1
 c1[3][0]: x[48] + x[50] + x[52] + x[54] + x[56] + x[58] + x[60] + x[62]
   = 1
 c1[3][1]: x[49] + x[51] + x[53] + x[55] + x[57] + x[59] + x[61] + x[63]
   = 1
 c2[0]: x[0] + x[2] + x[4] + x[6] + x[8] + x[10] + x[12] + x[14] = 1
 c2[1]: x[1] + x[3] + x[5] + x[7] + x[9] + x[11] + x[13] + x[15] = 1
 c3[0]: x[14] + x[30] + x[46] + x[62] + x[78] + x[94] + x[110] + x[126]
   = 1
 c3[1]: x[15] + x[31] + x[47] + x[63] + x[79] + x[95] + x[111] + x[127]
   = 1
 c4[0]: v[1] <= 1320
 c4[1]: v[3] <= 1320
 c5[0]: v[0] >= 360
 c5[1]: v[2] >= 360
 c6[1,0]: x[16] + x[18] + x[20] + x[22] + x[24] + x[26] + x[28] + x[30]
   - x[64] - x[66] - x[68] - x[70] - x[72] - x[74] - x[76] - x[78] = -0
 c6[1,1]: x[17] + x[19] + x[21] + x[23] + x[25] + x[27] + x[29] + x[31]
   - x[65] - x[67] - x[69] - x[71] - x[73] - x[75] - x[77] - x[79] = -0
 c6[2,0]: x[32] + x[34] + x[36] + x[38] + x[40] + x[42] + x[44] + x[46]
   - x[80] - x[82] - x[84] - x[86] - x[88] - x[90] - x[92] - x[94] = -0
 c6[2,1]: x[33] + x[35] + x[37] + x[39] + x[41] + x[43] + x[45] + x[47]
   - x[81] - x[83] - x[85] - x[87] - x[89] - x[91] - x[93] - x[95] = -0
 c6[3,0]: x[48] + x[50] + x[52] + x[54] + x[56] + x[58] + x[60] + x[62]
   - x[96] - x[98] - x[100] - x[102] - x[104] - x[106] - x[108] - x[110]
   = -0
 c6[3,1]: x[49] + x[51] + x[53] + x[55] + x[57] + x[59] + x[61] + x[63]
   - x[97] - x[99] - x[101] - x[103] - x[105] - x[107] - x[109] - x[111]
   = -0
 c7[1,0]: x[2] - x[16] - x[20] - x[22] - x[24] - x[26] - x[28] - x[30]
   + x[34] + x[50] + x[66] + x[82] + x[98] + x[114] = -0
 c7[1,1]: x[3] - x[17] - x[21] - x[23] - x[25] - x[27] - x[29] - x[31]
   + x[35] + x[51] + x[67] + x[83] + x[99] + x[115] = -0
 c7[2,0]: x[4] + x[20] - x[32] - x[34] - x[38] - x[40] - x[42] - x[44]
   - x[46] + x[52] + x[68] + x[84] + x[100] + x[116] = -0
 c7[2,1]: x[5] + x[21] - x[33] - x[35] - x[39] - x[41] - x[43] - x[45]
   - x[47] + x[53] + x[69] + x[85] + x[101] + x[117] = -0
 c7[3,0]: x[6] + x[22] + x[38] - x[48] - x[50] - x[52] - x[56] - x[58]
   - x[60] - x[62] + x[70] + x[86] + x[102] + x[118] = -0
 c7[3,1]: x[7] + x[23] + x[39] - x[49] - x[51] - x[53] - x[57] - x[59]
   - x[61] - x[63] + x[71] + x[87] + x[103] + x[119] = -0
 c8[1,0]: x[8] + x[24] + x[40] + x[56] - x[64] - x[66] - x[68] - x[70]
   - x[74] - x[76] - x[78] + x[88] + x[104] + x[120] = -0
 c8[1,1]: x[9] + x[25] + x[41] + x[57] - x[65] - x[67] - x[69] - x[71]
   - x[75] - x[77] - x[79] + x[89] + x[105] + x[121] = -0
 c8[2,0]: x[10] + x[26] + x[42] + x[58] + x[74] - x[80] - x[82] - x[84]
   - x[86] - x[88] - x[92] - x[94] + x[106] + x[122] = -0
 c8[2,1]: x[11] + x[27] + x[43] + x[59] + x[75] - x[81] - x[83] - x[85]
   - x[87] - x[89] - x[93] - x[95] + x[107] + x[123] = -0
 c8[3,0]: x[12] + x[28] + x[44] + x[60] + x[76] + x[92] - x[96] - x[98]
   - x[100] - x[102] - x[104] - x[106] - x[110] + x[124] = -0
 c8[3,1]: x[13] + x[29] + x[45] + x[61] + x[77] + x[93] - x[97] - x[99]
   - x[101] - x[103] - x[105] - x[107] - x[111] + x[125] = -0
 cm550: - 960 x[0] >= -960
 cm551: - 960 x[1] >= -960
 cm451: - 672.5 x[2] + u[0] - v[0] >= -660
 cm452: - 672.5 x[3] + u[0] - v[2] >= -660
 cm452: - 616.82 x[4] + u[1] - v[0] >= -600
 cm453: - 616.82 x[5] + u[1] - v[2] >= -600
 cm453: - 556.82 x[6] + u[2] - v[0] >= -540
 cm454: - 556.82 x[7] + u[2] - v[2] >= -540
 cm454: - 576.73 x[8] + u[3] - v[0] >= -570
 cm455: - 576.73 x[9] + u[3] - v[2] >= -570
 cm455: - 516.73 x[10] + u[4] - v[0] >= -510
 cm456: - 516.73 x[11] + u[4] - v[2] >= -510
 cm456: - 456.73 x[12] + u[5] - v[0] >= -450
 cm457: - 456.73 x[13] + u[5] - v[2] >= -450
 cm657: - 960 x[14] - v[0] + v[1] >= -960
 cm658: - 960 x[15] - v[2] + v[3] >= -960
 cm250: - 344.5 x[16] - u[0] + v[0] >= -330
 cm250: - 344.5 x[17] - u[0] + v[2] >= -330
 cm1251: - 32 x[18] >= -30
 cm1251: - 32 x[19] >= -30
 cm1252: - u[0] + u[1] >= 13.25
 cm1252: - u[0] + u[1] >= 13.25
 cm1253: - u[0] + u[2] >= 13.25
 cm1253: - u[0] + u[2] >= 13.25
 cm1254: - u[0] + u[3] >= 18.25
 cm1254: - u[0] + u[3] >= 18.25
 cm1255: - u[0] + u[4] >= 18.25
 cm1255: - u[0] + u[4] >= 18.25
 cm1256: - u[0] + u[5] >= 18.25
 cm1256: - u[0] + u[5] >= 18.25
 cm3357: - 344.5 x[30] - u[0] + v[1] >= -330
 cm3357: - 344.5 x[31] - u[0] + v[3] >= -330
 cm250: - 408.82 x[32] - u[1] + v[0] >= -390
 cm250: - 408.82 x[33] - u[1] + v[2] >= -390
 cm1251: - 103.25 x[34] + u[0] - u[1] >= -90
 cm1251: - 103.25 x[35] + u[0] - u[1] >= -90
 cm1252: - 32 x[36] >= -30
 cm1252: - 32 x[37] >= -30
 cm1253: - u[1] + u[2] >= 2
 cm1253: - u[1] + u[2] >= 2
 cm1254: - 17.81 x[40] - u[1] + u[3] >= 5.68434e-14
 cm1254: - 17.81 x[41] - u[1] + u[3] >= 5.68434e-14
 cm1255: - u[1] + u[4] >= 17.81
 cm1255: - u[1] + u[4] >= 17.81
 cm1256: - u[1] + u[5] >= 17.81
 cm1256: - u[1] + u[5] >= 17.81
 cm3357: - 408.82 x[46] - u[1] + v[1] >= -390
 cm3357: - 408.82 x[47] - u[1] + v[3] >= -390
 cm250: - 468.82 x[48] - u[2] + v[0] >= -450
 cm250: - 468.82 x[49] - u[2] + v[2] >= -450
 cm1251: - 163.25 x[50] + u[0] - u[2] >= -150
 cm1251: - 163.25 x[51] + u[0] - u[2] >= -150
 cm1252: - 92 x[52] + u[1] - u[2] >= -90
 cm1252: - 92 x[53] + u[1] - u[2] >= -90
 cm1253: - 32 x[54] >= -30
 cm1253: - 32 x[55] >= -30
 cm1254: - 77.81 x[56] - u[2] + u[3] >= -60
 cm1254: - 77.81 x[57] - u[2] + u[3] >= -60
 cm1255: - 17.81 x[58] - u[2] + u[4] >= 5.68434e-14
 cm1255: - 17.81 x[59] - u[2] + u[4] >= 5.68434e-14
 cm1256: - u[2] + u[5] >= 17.81
 cm1256: - u[2] + u[5] >= 17.81
 cm3357: - 468.82 x[62] - u[2] + v[1] >= -450
 cm3357: - 468.82 x[63] - u[2] + v[3] >= -450
 cm250: - 428.73 x[64] - u[3] + v[0] >= -420
 cm250: - 428.73 x[65] - u[3] + v[2] >= -420
 cm1251: - 138.25 x[66] + u[0] - u[3] >= -120
 cm1251: - 138.25 x[67] + u[0] - u[3] >= -120
 cm1252: - 77.81 x[68] + u[1] - u[3] >= -60
 cm1252: - 77.81 x[69] + u[1] - u[3] >= -60
 cm1253: - 17.81 x[70] + u[2] - u[3] >= 5.68434e-14
 cm1253: - 17.81 x[71] + u[2] - u[3] >= 5.68434e-14
 cm1254: - 32 x[72] >= -30
 cm1254: - 32 x[73] >= -30
 cm1255: - u[3] + u[4] >= 2
 cm1255: - u[3] + u[4] >= 2
 cm1256: - u[3] + u[5] >= 2
 cm1256: - u[3] + u[5] >= 2
 cm3357: - 428.73 x[78] - u[3] + v[1] >= -420
 cm3357: - 428.73 x[79] - u[3] + v[3] >= -420
 cm250: - 488.73 x[80] - u[4] + v[0] >= -480
 cm250: - 488.73 x[81] - u[4] + v[2] >= -480
 cm1251: - 198.25 x[82] + u[0] - u[4] >= -180
 cm1251: - 198.25 x[83] + u[0] - u[4] >= -180
 cm1252: - 137.81 x[84] + u[1] - u[4] >= -120
 cm1252: - 137.81 x[85] + u[1] - u[4] >= -120
 cm1253: - 77.81 x[86] + u[2] - u[4] >= -60
 cm1253: - 77.81 x[87] + u[2] - u[4] >= -60
 cm1254: - 92 x[88] + u[3] - u[4] >= -90
 cm1254: - 92 x[89] + u[3] - u[4] >= -90
 cm1255: - 32 x[90] >= -30
 cm1255: - 32 x[91] >= -30
 cm1256: - u[4] + u[5] >= 2
 cm1256: - u[4] + u[5] >= 2
 cm3357: - 488.73 x[94] - u[4] + v[1] >= -480
 cm3357: - 488.73 x[95] - u[4] + v[3] >= -480
 cm250: - 548.73 x[96] - u[5] + v[0] >= -540
 cm250: - 548.73 x[97] - u[5] + v[2] >= -540
 cm1251: - 258.25 x[98] + u[0] - u[5] >= -240
 cm1251: - 258.25 x[99] + u[0] - u[5] >= -240
 cm1252: - 197.81 x[100] + u[1] - u[5] >= -180
 cm1252: - 197.81 x[101] + u[1] - u[5] >= -180
 cm1253: - 137.81 x[102] + u[2] - u[5] >= -120
 cm1253: - 137.81 x[103] + u[2] - u[5] >= -120
 cm1254: - 152 x[104] + u[3] - u[5] >= -150
 cm1254: - 152 x[105] + u[3] - u[5] >= -150
 cm1255: - 92 x[106] + u[4] - u[5] >= -90
 cm1255: - 92 x[107] + u[4] - u[5] >= -90
 cm1256: - 32 x[108] >= -30
 cm1256: - 32 x[109] >= -30
 cm3357: - 548.73 x[110] - u[5] + v[1] >= -540
 cm3357: - 548.73 x[111] - u[5] + v[3] >= -540
 cm850: - 960 x[112] + v[0] - v[1] >= -960
 cm851: - 960 x[113] + v[2] - v[3] >= -960
 cm751: - 672.5 x[114] + u[0] - v[1] >= -660
 cm752: - 672.5 x[115] + u[0] - v[3] >= -660
 cm752: - 616.82 x[116] + u[1] - v[1] >= -600
 cm753: - 616.82 x[117] + u[1] - v[3] >= -600
 cm753: - 556.82 x[118] + u[2] - v[1] >= -540
 cm754: - 556.82 x[119] + u[2] - v[3] >= -540
 cm754: - 576.73 x[120] + u[3] - v[1] >= -570
 cm755: - 576.73 x[121] + u[3] - v[3] >= -570
 cm755: - 516.73 x[122] + u[4] - v[1] >= -510
 cm756: - 516.73 x[123] + u[4] - v[3] >= -510
 cm756: - 456.73 x[124] + u[5] - v[1] >= -450
 cm757: - 456.73 x[125] + u[5] - v[3] >= -450
 cm957: - 960 x[126] >= -960
 cm958: - 960 x[127] >= -960
 cw10: - 8 x[0] >= -8
 cw12: - 8 x[1] >= -8
 cw10: - 8 x[2] - w[0] + w[1] >= -7
 cw12: - 8 x[3] - w[0] + w[1] >= -7
 cw10: - 8 x[4] - w[0] + w[2] >= -6
 cw12: - 8 x[5] - w[0] + w[2] >= -6
 cw10: - 8 x[6] - w[0] + w[3] >= -6
 cw12: - 8 x[7] - w[0] + w[3] >= -6
 cw10: - 8 x[8] - w[0] + w[4] >= -9
 cw12: - 8 x[9] - w[0] + w[4] >= -9
 cw10: - 8 x[10] - w[0] + w[5] >= -10
 cw12: - 8 x[11] - w[0] + w[5] >= -10
 cw10: - 8 x[12] - w[0] + w[6] >= -10
 cw12: - 8 x[13] - w[0] + w[6] >= -10
 cw10: - 8 x[14] - w[0] + w[7] >= -8
 cw12: - 8 x[15] - w[0] + w[7] >= -8
 cw10: - 8 x[16] + w[0] - w[1] >= -8
 cw12: - 8 x[17] + w[0] - w[1] >= -8
 cw10: - 8 x[18] >= -7
 cw12: - 8 x[19] >= -7
 cw10: - 8 x[20] - w[1] + w[2] >= -6
 cw12: - 8 x[21] - w[1] + w[2] >= -6
 cw10: - 8 x[22] - w[1] + w[3] >= -6
 cw12: - 8 x[23] - w[1] + w[3] >= -6
 cw10: - 8 x[24] - w[1] + w[4] >= -9
 cw12: - 8 x[25] - w[1] + w[4] >= -9
 cw10: - 8 x[26] - w[1] + w[5] >= -10
 cw12: - 8 x[27] - w[1] + w[5] >= -10
 cw10: - 8 x[28] - w[1] + w[6] >= -10
 cw12: - 8 x[29] - w[1] + w[6] >= -10
 cw10: - 8 x[30] - w[1] + w[7] >= -8
 cw12: - 8 x[31] - w[1] + w[7] >= -8
 cw10: - 8 x[32] + w[0] - w[2] >= -8
 cw12: - 8 x[33] + w[0] - w[2] >= -8
 cw10: - 8 x[34] + w[1] - w[2] >= -7
 cw12: - 8 x[35] + w[1] - w[2] >= -7
 cw10: - 8 x[36] >= -6
 cw12: - 8 x[37] >= -6
 cw10: - 8 x[38] - w[2] + w[3] >= -6
 cw12: - 8 x[39] - w[2] + w[3] >= -6
 cw10: - 8 x[40] - w[2] + w[4] >= -9
 cw12: - 8 x[41] - w[2] + w[4] >= -9
 cw10: - 8 x[42] - w[2] + w[5] >= -10
 cw12: - 8 x[43] - w[2] + w[5] >= -10
 cw10: - 8 x[44] - w[2] + w[6] >= -10
 cw12: - 8 x[45] - w[2] + w[6] >= -10
 cw10: - 8 x[46] - w[2] + w[7] >= -8
 cw12: - 8 x[47] - w[2] + w[7] >= -8
 cw10: - 8 x[48] + w[0] - w[3] >= -8
 cw12: - 8 x[49] + w[0] - w[3] >= -8
 cw10: - 8 x[50] + w[1] - w[3] >= -7
 cw12: - 8 x[51] + w[1] - w[3] >= -7
 cw10: - 8 x[52] + w[2] - w[3] >= -6
 cw12: - 8 x[53] + w[2] - w[3] >= -6
 cw10: - 8 x[54] >= -6
 cw12: - 8 x[55] >= -6
 cw10: - 8 x[56] - w[3] + w[4] >= -9
 cw12: - 8 x[57] - w[3] + w[4] >= -9
 cw10: - 8 x[58] - w[3] + w[5] >= -10
 cw12: - 8 x[59] - w[3] + w[5] >= -10
 cw10: - 8 x[60] - w[3] + w[6] >= -10
 cw12: - 8 x[61] - w[3] + w[6] >= -10
 cw10: - 8 x[62] - w[3] + w[7] >= -8
 cw12: - 8 x[63] - w[3] + w[7] >= -8
 cw10: - 7 x[64] + w[0] - w[4] >= -7
 cw12: - 7 x[65] + w[0] - w[4] >= -7
 cw10: - 7 x[66] + w[1] - w[4] >= -6
 cw12: - 7 x[67] + w[1] - w[4] >= -6
 cw10: - 7 x[68] + w[2] - w[4] >= -5
 cw12: - 7 x[69] + w[2] - w[4] >= -5
 cw10: - 7 x[70] + w[3] - w[4] >= -5
 cw12: - 7 x[71] + w[3] - w[4] >= -5
 cw10: - 7 x[72] >= -8
 cw12: - 7 x[73] >= -8
 cw10: - 7 x[74] - w[4] + w[5] >= -9
 cw12: - 7 x[75] - w[4] + w[5] >= -9
 cw10: - 7 x[76] - w[4] + w[6] >= -9
 cw12: - 7 x[77] - w[4] + w[6] >= -9
 cw10: - 7 x[78] - w[4] + w[7] >= -7
 cw12: - 7 x[79] - w[4] + w[7] >= -7
 cw10: - 6 x[80] + w[0] - w[5] >= -6
 cw12: - 6 x[81] + w[0] - w[5] >= -6
 cw10: - 6 x[82] + w[1] - w[5] >= -5
 cw12: - 6 x[83] + w[1] - w[5] >= -5
 cw10: - 6 x[84] + w[2] - w[5] >= -4
 cw12: - 6 x[85] + w[2] - w[5] >= -4
 cw10: - 6 x[86] + w[3] - w[5] >= -4
 cw12: - 6 x[87] + w[3] - w[5] >= -4
 cw10: - 6 x[88] + w[4] - w[5] >= -7
 cw12: - 6 x[89] + w[4] - w[5] >= -7
 cw10: - 6 x[90] >= -8
 cw12: - 6 x[91] >= -8
 cw10: - 6 x[92] - w[5] + w[6] >= -8
 cw12: - 6 x[93] - w[5] + w[6] >= -8
 cw10: - 6 x[94] - w[5] + w[7] >= -6
 cw12: - 6 x[95] - w[5] + w[7] >= -6
 cw10: - 6 x[96] + w[0] - w[6] >= -6
 cw12: - 6 x[97] + w[0] - w[6] >= -6
 cw10: - 6 x[98] + w[1] - w[6] >= -5
 cw12: - 6 x[99] + w[1] - w[6] >= -5
 cw10: - 6 x[100] + w[2] - w[6] >= -4
 cw12: - 6 x[101] + w[2] - w[6] >= -4
 cw10: - 6 x[102] + w[3] - w[6] >= -4
 cw12: - 6 x[103] + w[3] - w[6] >= -4
 cw10: - 6 x[104] + w[4] - w[6] >= -7
 cw12: - 6 x[105] + w[4] - w[6] >= -7
 cw10: - 6 x[106] + w[5] - w[6] >= -8
 cw12: - 6 x[107] + w[5] - w[6] >= -8
 cw10: - 6 x[108] >= -8
 cw12: - 6 x[109] >= -8
 cw10: - 6 x[110] - w[6] + w[7] >= -6
 cw12: - 6 x[111] - w[6] + w[7] >= -6
 cw10: - 8 x[112] + w[0] - w[7] >= -8
 cw12: - 8 x[113] + w[0] - w[7] >= -8
 cw10: - 8 x[114] + w[1] - w[7] >= -7
 cw12: - 8 x[115] + w[1] - w[7] >= -7
 cw10: - 8 x[116] + w[2] - w[7] >= -6
 cw12: - 8 x[117] + w[2] - w[7] >= -6
 cw10: - 8 x[118] + w[3] - w[7] >= -6
 cw12: - 8 x[119] + w[3] - w[7] >= -6
 cw10: - 8 x[120] + w[4] - w[7] >= -9
 cw12: - 8 x[121] + w[4] - w[7] >= -9
 cw10: - 8 x[122] + w[5] - w[7] >= -10
 cw12: - 8 x[123] + w[5] - w[7] >= -10
 cw10: - 8 x[124] + w[6] - w[7] >= -10
 cw12: - 8 x[125] + w[6] - w[7] >= -10
 cw10: - 8 x[126] >= -8
 cw12: - 8 x[127] >= -8
 c9[1]: u[0] - u[3] + r[0] = -2
 c9[2]: u[1] - u[4] + r[1] = -2
 c9[3]: u[2] - u[5] + r[2] = -2
 c10n0: w[0] >= -0
 c10r0: w[0] <= 8
 c10n1: w[1] >= 1
 c10r1: w[1] <= 8
 c10n2: w[2] >= 2
 c10r2: w[2] <= 8
 c10n3: w[3] >= 2
 c10r3: w[3] <= 8
 c11l4: w[4] >= -0
 c11r4: w[4] <= 7
 c11l5: w[5] >= -0
 c11r5: w[5] <= 6
 c11l6: w[6] >= -0
 c11r6: w[6] <= 6
 c10n7: w[7] >= -0
 c10r7: w[7] <= 8
 c12l1: u[0] >= 660
 c12r1: u[0] <= 690
 c12l2: u[1] >= 720
 c12r2: u[1] <= 750
 c12l3: u[2] >= 780
 c12r3: u[2] <= 810
 c13l4: u[3] >= 750
 c13r4: u[3] <= 780
 c13l5: u[4] >= 810
 c13r5: u[4] <= 840
 c13l6: u[5] >= 870
 c13r6: u[5] <= 900
 c14_11: r[0] >= 16.25
 c14_21: r[0] <= 2100
 c14_12: r[1] >= 15.81
 c14_22: r[1] <= 2160
 c14_13: r[2] >= 15.81
 c14_23: r[2] <= 2100
 c15: x[0] + x[1] = -0
 c15: x[18] + x[19] = -0
 c15: x[36] + x[37] = -0
 c15: x[54] + x[55] = -0
 c15: x[72] + x[73] = -0
 c15: x[90] + x[91] = -0
 c15: x[108] + x[109] = -0
 c15: x[126] + x[127] = -0
 c16[0]: x[112] + x[114] + x[116] + x[118] + x[120] + x[122] + x[124]
   + x[126] = -0
 c16[1]: x[113] + x[115] + x[117] + x[119] + x[121] + x[123] + x[125]
   + x[127] = -0
 c26: 1000 x[16] + 1000 x[18] + 1000 x[20] + 1000 x[22] + 1000 x[24]
   + 1000 x[26] + 1000 x[28] + 1000 x[30] + 1000 x[32] + 1000 x[34]
   + 1000 x[36] + 1000 x[38] + 1000 x[40] + 1000 x[42] + 1000 x[44]
   + 1000 x[46] + 2000 x[48] + 2000 x[50] + 2000 x[52] + 2000 x[54]
   + 2000 x[56] + 2000 x[58] + 2000 x[60] + 2000 x[62] <= 20000
 c27: 1000 x[17] + 1000 x[19] + 1000 x[21] + 1000 x[23] + 1000 x[25]
   + 1000 x[27] + 1000 x[29] + 1000 x[31] + 1000 x[33] + 1000 x[35]
   + 1000 x[37] + 1000 x[39] + 1000 x[41] + 1000 x[43] + 1000 x[45]
   + 1000 x[47] + 2000 x[49] + 2000 x[51] + 2000 x[53] + 2000 x[55]
   + 2000 x[57] + 2000 x[59] + 2000 x[61] + 2000 x[63] <= 20000
Bounds
Binaries
 x[0] x[1] x[2] x[3] x[4] x[5] x[6] x[7] x[8] x[9] x[10] x[11] x[12] x[13]
 x[14] x[15] x[16] x[17] x[18] x[19] x[20] x[21] x[22] x[23] x[24] x[25]
 x[26] x[27] x[28] x[29] x[30] x[31] x[32] x[33] x[34] x[35] x[36] x[37]
 x[38] x[39] x[40] x[41] x[42] x[43] x[44] x[45] x[46] x[47] x[48] x[49]
 x[50] x[51] x[52] x[53] x[54] x[55] x[56] x[57] x[58] x[59] x[60] x[61]
 x[62] x[63] x[64] x[65] x[66] x[67] x[68] x[69] x[70] x[71] x[72] x[73]
 x[74] x[75] x[76] x[77] x[78] x[79] x[80] x[81] x[82] x[83] x[84] x[85]
 x[86] x[87] x[88] x[89] x[90] x[91] x[92] x[93] x[94] x[95] x[96] x[97]
 x[98] x[99] x[100] x[101] x[102] x[103] x[104] x[105] x[106] x[107] x[108]
 x[109] x[110] x[111] x[112] x[113] x[114] x[115] x[116] x[117] x[118]
 x[119] x[120] x[121] x[122] x[123] x[124] x[125] x[126] x[127]
Generals
 u[0] u[1] u[2] u[3] u[4] u[5] v[0] v[1] v[2] v[3] w[0] w[1] w[2] w[3] w[4]
 w[5] w[6] w[7] r[0] r[1] r[2]
End
